c CNF file corresponding to a (partial) station packing problem.
p cnf 4642 229
1 2 3 4 5 6 7 8 9 10 11 12 13 14 0
-1 -2 0
-1 -3 0
-1 -4 0
-1 -5 0
-1 -6 0
-1 -7 0
-1 -8 0
-1 -9 0
-1 -10 0
-1 -11 0
-1 -12 0
-1 -13 0
-1 -14 0
-2 -3 0
-2 -4 0
-2 -5 0
-2 -6 0
-2 -7 0
-2 -8 0
-2 -9 0
-2 -10 0
-2 -11 0
-2 -12 0
-2 -13 0
-2 -14 0
-3 -4 0
-3 -5 0
-3 -6 0
-3 -7 0
-3 -8 0
-3 -9 0
-3 -10 0
-3 -11 0
-3 -12 0
-3 -13 0
-3 -14 0
-4 -5 0
-4 -6 0
-4 -7 0
-4 -8 0
-4 -9 0
-4 -10 0
-4 -11 0
-4 -12 0
-4 -13 0
-4 -14 0
-5 -6 0
-5 -7 0
-5 -8 0
-5 -9 0
-5 -10 0
-5 -11 0
-5 -12 0
-5 -13 0
-5 -14 0
-6 -7 0
-6 -8 0
-6 -9 0
-6 -10 0
-6 -11 0
-6 -12 0
-6 -13 0
-6 -14 0
-7 -8 0
-7 -9 0
-7 -10 0
-7 -11 0
-7 -12 0
-7 -13 0
-7 -14 0
-8 -9 0
-8 -10 0
-8 -11 0
-8 -12 0
-8 -13 0
-8 -14 0
-9 -10 0
-9 -11 0
-9 -12 0
-9 -13 0
-9 -14 0
-10 -11 0
-10 -12 0
-10 -13 0
-10 -14 0
-11 -12 0
-11 -13 0
-11 -14 0
-12 -13 0
-12 -14 0
-13 -14 0
4626 4627 4628 4629 4630 4631 4632 4633 4634 4635 4636 4637 4638 4639 4640 4641 4642 0
-4626 -4627 0
-4626 -4628 0
-4626 -4629 0
-4626 -4630 0
-4626 -4631 0
-4626 -4632 0
-4626 -4633 0
-4626 -4634 0
-4626 -4635 0
-4626 -4636 0
-4626 -4637 0
-4626 -4638 0
-4626 -4639 0
-4626 -4640 0
-4626 -4641 0
-4626 -4642 0
-4627 -4628 0
-4627 -4629 0
-4627 -4630 0
-4627 -4631 0
-4627 -4632 0
-4627 -4633 0
-4627 -4634 0
-4627 -4635 0
-4627 -4636 0
-4627 -4637 0
-4627 -4638 0
-4627 -4639 0
-4627 -4640 0
-4627 -4641 0
-4627 -4642 0
-4628 -4629 0
-4628 -4630 0
-4628 -4631 0
-4628 -4632 0
-4628 -4633 0
-4628 -4634 0
-4628 -4635 0
-4628 -4636 0
-4628 -4637 0
-4628 -4638 0
-4628 -4639 0
-4628 -4640 0
-4628 -4641 0
-4628 -4642 0
-4629 -4630 0
-4629 -4631 0
-4629 -4632 0
-4629 -4633 0
-4629 -4634 0
-4629 -4635 0
-4629 -4636 0
-4629 -4637 0
-4629 -4638 0
-4629 -4639 0
-4629 -4640 0
-4629 -4641 0
-4629 -4642 0
-4630 -4631 0
-4630 -4632 0
-4630 -4633 0
-4630 -4634 0
-4630 -4635 0
-4630 -4636 0
-4630 -4637 0
-4630 -4638 0
-4630 -4639 0
-4630 -4640 0
-4630 -4641 0
-4630 -4642 0
-4631 -4632 0
-4631 -4633 0
-4631 -4634 0
-4631 -4635 0
-4631 -4636 0
-4631 -4637 0
-4631 -4638 0
-4631 -4639 0
-4631 -4640 0
-4631 -4641 0
-4631 -4642 0
-4632 -4633 0
-4632 -4634 0
-4632 -4635 0
-4632 -4636 0
-4632 -4637 0
-4632 -4638 0
-4632 -4639 0
-4632 -4640 0
-4632 -4641 0
-4632 -4642 0
-4633 -4634 0
-4633 -4635 0
-4633 -4636 0
-4633 -4637 0
-4633 -4638 0
-4633 -4639 0
-4633 -4640 0
-4633 -4641 0
-4633 -4642 0
-4634 -4635 0
-4634 -4636 0
-4634 -4637 0
-4634 -4638 0
-4634 -4639 0
-4634 -4640 0
-4634 -4641 0
-4634 -4642 0
-4635 -4636 0
-4635 -4637 0
-4635 -4638 0
-4635 -4639 0
-4635 -4640 0
-4635 -4641 0
-4635 -4642 0
-4636 -4637 0
-4636 -4638 0
-4636 -4639 0
-4636 -4640 0
-4636 -4641 0
-4636 -4642 0
-4637 -4638 0
-4637 -4639 0
-4637 -4640 0
-4637 -4641 0
-4637 -4642 0
-4638 -4639 0
-4638 -4640 0
-4638 -4641 0
-4638 -4642 0
-4639 -4640 0
-4639 -4641 0
-4639 -4642 0
-4640 -4641 0
-4640 -4642 0
-4641 -4642 0
